evm/ejemplos_dzn/EthPriceMintModule_run_code_of_0_block_127_0_input.dzn
TERM = { '.', s0, s1, s2, s7, s8, s9};
null = '.';
s = 5;
n = 7;
min = 5;
N0 = 0;
ZEROARYOP = {};
zeroout = [];
zerogas = [];
zerosz =  [];
zerolb =  [];
zeroub =  [];
N1 = 1;
UNARYOP = { CALLDATALOAD_0 };
unin = [ s2 ];
unout = [ s8 ];
ungas = [ 3 ];
unsz = [ 1 ];
unlb = [ 1 ];
unub = [ 5 ];
N2 = 0;
BINARYOP = {};
binin1 =  [];
binin2 =  [];
binout = [];
bincomm = [];
bingas = [];
binsz =  [];
binlb =  [];
binub =  [];
NA = 0;
ASSOCIATIVEADDOP = {};
naddin =  [];
addin =  [||];
addout = [];
addcomm = [];
addgas = [];
addsz =  [];
addlb =  [];
addub =  [];
NPUSH = 2;
PUSHOP = { 'PUSH [tag]_0', 'PUSH [tag]_1' };
pushout = [ s7, s9 ];
pushgas = [ 3, 3 ];
pushsz = [ 3, 3 ];
pushlb = [ 1, 1 ];
pushub = [ 5, 5 ];
NSTORE = 0;
STOROP = {};
storin1 =  [];
storin2 =  [];
storlb =  [];
storub =  [];
storgas = [];
storsz = [];
DUP_ENUM = { DUP1, DUP2, DUP3, DUP4, DUP5, DUP6};
SWAP_ENUM = { SWAP1, SWAP2, SWAP3, SWAP4, SWAP5, SWAP6};
startstack = [ s0, s1, s2, null, null, null, null ];
endstack = [ s7, s8, s9, s8, s0, s1, s2 ];
m_dep_n = 0;
memory_dependences = [| |];
s_dep_n = 0;
store_dependences = [| |];
lib = false;
nlib = 0;
lib_elem = [| |];
lib_dis = [];
