evm/ejemplos_results/EthPriceMintModule_run_code_of_0_block_127_0_input.txt
value = 5;
fgas = [3, 3, 3, 3, 3];
fsize = [1, 1, 3, 1, 3];
states = 
[| s0, s1, s2, '.', '.', '.', '.'
 | s2, s0, s1,  s2, '.', '.', '.'
 | s8, s0, s1,  s2, '.', '.', '.'
 | s9, s8, s0,  s1,  s2, '.', '.'
 | s8, s9, s8,  s0,  s1,  s2, '.'
 | s7, s8, s9,  s8,  s0,  s1,  s2
 |];
program = [D(DUP3), U(CALLDATALOAD_0), P('PUSH [tag]_1'), D(DUP2), P('PUSH [tag]_0')];
% time elapsed: 0.65 s
----------
==========
% time elapsed: 0.65 s
% [value > 4]
